(set-logic QF_S)
(declare-fun var0 () String)
(assert (str.in.re var0 (re.++ (re.* (re.* (str.to.re "00"))) (re.++ (re.+ (re.union (str.to.re "11") (str.to.re "222"))) (re.++ (re.+ (re.union (str.to.re "3") (str.to.re "4"))) (re.++ (re.union (re.union (str.to.re "555") (str.to.re "6")) (re.union (str.to.re "7") (str.to.re "888"))) (re.++ (re.* (re.+ (str.to.re "99"))) (re.++ (re.+ (re.+ (str.to.re "aaa"))) (re.++ (re.union (re.* (str.to.re "bbb")) (re.* (str.to.re "cc"))) (re.++ (re.* (re.+ (str.to.re "dd"))) (re.++ (re.union (re.+ (str.to.re "e")) (re.+ (str.to.re "ff"))) (re.++ (re.union (re.union (str.to.re "g") (str.to.re "hhh")) (re.union (str.to.re "i") (str.to.re "jj"))) (re.++ (re.+ (re.union (str.to.re "k") (str.to.re "l"))) (re.++ (re.* (re.+ (str.to.re "mmm"))) (re.++ (re.* (re.+ (str.to.re "nnn"))) (re.++ (re.union (re.union (str.to.re "oo") (str.to.re "p")) (re.union (str.to.re "q") (str.to.re "r"))) (re.++ (re.* (re.+ (str.to.re "sss"))) (re.++ (re.+ (re.union (str.to.re "ttt") (str.to.re "uuu"))) (re.++ (re.+ (re.union (str.to.re "v") (str.to.re "ww"))) (re.++ (re.union (re.+ (str.to.re "xx")) (re.+ (str.to.re "yy"))) (re.++ (re.union (re.union (str.to.re "z") (str.to.re "AAA")) (re.union (str.to.re "BBB") (str.to.re "CCC"))) (re.++ (re.* (re.* (str.to.re "DD"))) (re.++ (re.* (re.+ (str.to.re "EEE"))) (re.++ (re.union (re.+ (str.to.re "FFF")) (re.+ (str.to.re "GG"))) (re.++ (re.union (re.+ (str.to.re "H")) (re.+ (str.to.re "II"))) (re.++ (re.+ (re.* (str.to.re "JJJ"))) (re.++ (re.+ (re.union (str.to.re "KK") (str.to.re "L"))) (re.++ (re.+ (re.+ (str.to.re "MM"))) (re.++ (re.* (re.union (str.to.re "NNN") (str.to.re "OO"))) (re.++ (re.* (re.union (str.to.re "P") (str.to.re "Q"))) (re.++ (re.union (re.* (str.to.re "R")) (re.* (str.to.re "S"))) (re.++ (re.+ (re.+ (str.to.re "T"))) (re.++ (re.union (re.* (str.to.re "UUU")) (re.* (str.to.re "VV"))) (re.++ (re.+ (re.union (str.to.re "W") (str.to.re "XXX"))) (re.++ (re.* (re.union (str.to.re "Y") (str.to.re "ZZ"))) (re.++ (re.+ (re.+ (str.to.re "!!"))) (re.++ (re.* (re.union (str.to.re """""") (str.to.re "##"))) (re.++ (re.union (re.+ (str.to.re "$")) (re.+ (str.to.re "%%"))) (re.++ (re.+ (re.* (str.to.re "&"))) (re.++ (re.union (re.* (str.to.re "'''")) (re.* (str.to.re "("))) (re.++ (re.union (re.+ (str.to.re "))")) (re.+ (str.to.re "*"))) (re.++ (re.+ (re.* (str.to.re "+"))) (re.++ (re.* (re.union (str.to.re ",,") (str.to.re "---"))) (re.++ (re.* (re.union (str.to.re "...") (str.to.re "//"))) (re.++ (re.union (re.+ (str.to.re "::")) (re.+ (str.to.re ";;;"))) (re.++ (re.+ (re.* (str.to.re "<<<"))) (re.++ (re.union (re.* (str.to.re "=")) (re.* (str.to.re ">"))) (re.++ (re.* (re.union (str.to.re "???") (str.to.re "@"))) (re.++ (re.* (re.union (str.to.re "[[") (str.to.re "\\\\\\"))) (re.++ (re.+ (re.union (str.to.re "]") (str.to.re "^"))) (re.++ (re.* (re.union (str.to.re "__") (str.to.re "```"))) (re.++ (re.+ (re.* (str.to.re "{"))) (re.++ (re.union (re.* (str.to.re "|")) (re.* (str.to.re "}}}"))) (re.++ (re.union (re.union (str.to.re "~~") (str.to.re "0")) (re.union (str.to.re "111") (str.to.re "222"))) (re.++ (re.* (re.union (str.to.re "333") (str.to.re "444"))) (re.++ (re.+ (re.union (str.to.re "55") (str.to.re "666"))) (re.++ (re.* (re.union (str.to.re "777") (str.to.re "88"))) (re.++ (re.* (re.+ (str.to.re "99"))) (re.++ (re.+ (re.+ (str.to.re "a"))) (re.++ (re.union (re.* (str.to.re "bbb")) (re.* (str.to.re "c"))) (re.++ (re.+ (re.+ (str.to.re "dd"))) (re.++ (re.+ (re.union (str.to.re "ee") (str.to.re "f"))) (re.++ (re.union (re.* (str.to.re "gg")) (re.* (str.to.re "hhh"))) (re.++ (re.* (re.* (str.to.re "iii"))) (re.++ (re.+ (re.+ (str.to.re "jjj"))) (re.++ (re.union (re.* (str.to.re "kk")) (re.* (str.to.re "l"))) (re.++ (re.+ (re.+ (str.to.re "mm"))) (re.+ (re.union (str.to.re "nn") (str.to.re "o"))))))))))))))))))))))))))))))))))))))))))))))))))))))))))))))))))))))
(assert (not (str.in.re var0 (re.++ (re.* (re.* (str.to.re "000"))) (re.++ (re.union (re.+ (str.to.re "111")) (re.+ (str.to.re "22"))) (re.++ (re.+ (re.union (str.to.re "3") (str.to.re "4"))) (re.++ (re.union (re.union (str.to.re "5") (str.to.re "6")) (re.union (str.to.re "77") (str.to.re "888"))) (re.++ (re.+ (re.union (str.to.re "9") (str.to.re "aa"))) (re.++ (re.union (re.* (str.to.re "bbb")) (re.* (str.to.re "c"))) (re.++ (re.union (re.* (str.to.re "dd")) (re.* (str.to.re "e"))) (re.++ (re.* (re.+ (str.to.re "fff"))) (re.++ (re.union (re.* (str.to.re "ggg")) (re.* (str.to.re "hh"))) (re.++ (re.+ (re.* (str.to.re "iii"))) (re.++ (re.union (re.+ (str.to.re "jj")) (re.+ (str.to.re "kk"))) (re.++ (re.union (re.* (str.to.re "l")) (re.* (str.to.re "mm"))) (re.++ (re.* (re.union (str.to.re "n") (str.to.re "ooo"))) (re.++ (re.+ (re.union (str.to.re "ppp") (str.to.re "q"))) (re.++ (re.union (re.+ (str.to.re "rr")) (re.+ (str.to.re "sss"))) (re.++ (re.+ (re.* (str.to.re "t"))) (re.++ (re.* (re.+ (str.to.re "uuu"))) (re.++ (re.union (re.* (str.to.re "vvv")) (re.* (str.to.re "www"))) (re.++ (re.* (re.+ (str.to.re "xxx"))) (re.++ (re.union (re.union (str.to.re "yyy") (str.to.re "zz")) (re.union (str.to.re "AA") (str.to.re "BBB"))) (re.++ (re.+ (re.* (str.to.re "CCC"))) (re.++ (re.union (re.+ (str.to.re "DDD")) (re.+ (str.to.re "E"))) (re.++ (re.union (re.union (str.to.re "F") (str.to.re "GGG")) (re.union (str.to.re "H") (str.to.re "I"))) (re.++ (re.+ (re.union (str.to.re "J") (str.to.re "KKK"))) (re.++ (re.+ (re.+ (str.to.re "LLL"))) (re.++ (re.* (re.+ (str.to.re "MMM"))) (re.++ (re.* (re.+ (str.to.re "NN"))) (re.++ (re.union (re.+ (str.to.re "OO")) (re.+ (str.to.re "P"))) (re.++ (re.* (re.* (str.to.re "QQ"))) (re.++ (re.* (re.* (str.to.re "RRR"))) (re.++ (re.+ (re.* (str.to.re "S"))) (re.++ (re.union (re.* (str.to.re "TTT")) (re.* (str.to.re "U"))) (re.++ (re.union (re.* (str.to.re "V")) (re.* (str.to.re "WWW"))) (re.++ (re.+ (re.* (str.to.re "XX"))) (re.++ (re.+ (re.+ (str.to.re "YY"))) (re.++ (re.* (re.* (str.to.re "ZZZ"))) (re.++ (re.* (re.union (str.to.re "!!!") (str.to.re """"""""))) (re.++ (re.* (re.+ (str.to.re "##"))) (re.++ (re.+ (re.union (str.to.re "$$$") (str.to.re "%%%"))) (re.++ (re.+ (re.+ (str.to.re "&&"))) (re.++ (re.* (re.union (str.to.re "'''") (str.to.re "(("))) (re.++ (re.+ (re.+ (str.to.re "))"))) (re.++ (re.+ (re.+ (str.to.re "**"))) (re.++ (re.+ (re.* (str.to.re "+"))) (re.++ (re.+ (re.union (str.to.re ",,") (str.to.re "--"))) (re.++ (re.+ (re.+ (str.to.re "."))) (re.++ (re.union (re.* (str.to.re "//")) (re.* (str.to.re ":::"))) (re.++ (re.* (re.* (str.to.re ";;"))) (re.++ (re.* (re.* (str.to.re "<<<"))) (re.++ (re.+ (re.+ (str.to.re "="))) (re.++ (re.* (re.union (str.to.re ">>") (str.to.re "???"))) (re.++ (re.union (re.* (str.to.re "@@@")) (re.* (str.to.re "[["))) (re.++ (re.* (re.* (str.to.re "\\\\"))) (re.++ (re.* (re.* (str.to.re "]"))) (re.++ (re.union (re.union (str.to.re "^") (str.to.re "_")) (re.union (str.to.re "``") (str.to.re "{{"))) (re.++ (re.* (re.union (str.to.re "|") (str.to.re "}}"))) (re.++ (re.* (re.union (str.to.re "~~") (str.to.re "000"))) (re.++ (re.+ (re.* (str.to.re "11"))) (re.++ (re.+ (re.+ (str.to.re "2"))) (re.++ (re.+ (re.* (str.to.re "33"))) (re.++ (re.+ (re.* (str.to.re "4"))) (re.++ (re.* (re.* (str.to.re "55"))) (re.++ (re.+ (re.+ (str.to.re "666"))) (re.++ (re.+ (re.union (str.to.re "777") (str.to.re "88"))) (re.++ (re.+ (re.union (str.to.re "99") (str.to.re "a"))) (re.union (re.+ (str.to.re "bb")) (re.+ (str.to.re "cc")))))))))))))))))))))))))))))))))))))))))))))))))))))))))))))))))))))))
(check-sat)